(set-option :produce-interpolants true)
(set-option :produce-unsat-cores true)
(set-option :simplify-interpolants true)
(set-logic QF_UFLIRA)
(set-option :verbosity 2)
(declare-fun $sig () Int)
(declare-fun $T_node~0.start_bt () Bool)
(declare-fun $T_node~0.launch_bt () Bool)
(declare-fun $T_node~0.reset_flag () Bool)
(declare-fun $T_node~0.p1 () Bool)
(declare-fun $R_wrapper~0.R_node~0.start_btn_bool () Bool)
(declare-fun $R_wrapper~0.R_node~0.launch_btn_bool () Bool)
(declare-fun $R_wrapper~0.R_node~0.reset_btn_bool () Bool)
(declare-fun $R_wrapper~0.R_node~0.ignition_bool () Bool)
(declare-fun $R_wrapper~0.R_node~0.r347_start_btn_1_15_4_bool () Bool)
(declare-fun $R_wrapper~0.R_node~0.r347_launch_btn_1_17_4_bool () Bool)
(declare-fun $R_wrapper~0.R_node~0.r347_reset_btn_1_9_4_bool () Bool)
(declare-fun $R_wrapper~0.R_node~0.r347_ignition_r_1_7_4_bool () Bool)
(declare-fun $R_wrapper~0.R_node~0.w14_3 () Int)
(declare-fun $R_wrapper~0.R_node~0.w12_2 () Int)
(declare-fun $R_wrapper~0.R_node~0.w13_2 () Int)
(declare-fun $R_wrapper~0.R_node~0.w14_2 () Int)
(declare-fun $R_wrapper~0.R_node~0.r347_start_btn_1_3_4 () Int)
(declare-fun $R_wrapper~0.R_node~0.r347_launch_btn_1_3_4 () Int)
(declare-fun $R_wrapper~0.R_node~0.r347_launch_btn_1_5_4 () Int)
(declare-fun $R_wrapper~0.R_node~0.r347_start_btn_1_5_4 () Int)
(declare-fun $R_wrapper~0.R_node~0.r347_launch_btn_1_7_4 () Int)
(declare-fun $R_wrapper~0.R_node~0.r347_launch_btn_1_9_4 () Int)
(declare-fun $R_wrapper~0.R_node~0.r347_start_btn_1_7_4 () Int)
(declare-fun $R_wrapper~0.R_node~0.r347_launch_btn_1_11_4 () Int)
(declare-fun $R_wrapper~0.R_node~0.r347_start_btn_1_9_4 () Int)
(declare-fun $R_wrapper~0.R_node~0.r347_reset_btn_1_4_4 () Int)
(declare-fun $R_wrapper~0.R_node~0.r347_ignition_r_1_4_4 () Int)
(declare-fun $R_wrapper~0.R_node~0.r347_reset_btn_1_5_4 () Int)
(declare-fun $R_wrapper~0.R_node~0.r347_launch_btn_1_13_4 () Int)
(declare-fun $R_wrapper~0.R_node~0.r347_start_btn_1_11_4 () Int)
(declare-fun $R_wrapper~0.R_node~0.r347_ignition_r_1_5_4 () Int)
(declare-fun $R_wrapper~0.R_node~0.r347_launch_btn_1_15_4 () Int)
(declare-fun $R_wrapper~0.R_node~0.r347_reset_btn_1_7_4 () Int)
(declare-fun $R_wrapper~0.R_node~0.r347_start_btn_1_13_4 () Int)
(declare-fun $R_wrapper~0.R_node~0.r347_launch_btn_1_17_4 () Int)
(declare-fun $R_wrapper~0.R_node~0.r347_ignition_r_1_7_4 () Int)
(declare-fun $R_wrapper~0.R_node~0.r347_reset_btn_1_9_4 () Int)
(declare-fun $R_wrapper~0.R_node~0.r347_start_btn_1_15_4 () Int)
(declare-fun $R_wrapper~0.R_node~0.start_btn () Int)
(declare-fun $R_wrapper~0.R_node~0.launch_btn () Int)
(declare-fun $R_wrapper~0.R_node~0.reset_btn () Int)
(declare-fun $R_wrapper~0.R_node~0.ignition () Int)
(declare-fun %init () Bool)
(declare-fun %assertions () Bool)
(declare-fun $sig- () Int)
(declare-fun $T_node~0.start_bt- () Bool)
(declare-fun $T_node~0.launch_bt- () Bool)
(declare-fun $T_node~0.reset_flag- () Bool)
(declare-fun $T_node~0.p1- () Bool)
(declare-fun $R_wrapper~0.R_node~0.start_btn_bool- () Bool)
(declare-fun $R_wrapper~0.R_node~0.launch_btn_bool- () Bool)
(declare-fun $R_wrapper~0.R_node~0.reset_btn_bool- () Bool)
(declare-fun $R_wrapper~0.R_node~0.ignition_bool- () Bool)
(declare-fun $R_wrapper~0.R_node~0.r347_start_btn_1_15_4_bool- () Bool)
(declare-fun $R_wrapper~0.R_node~0.r347_launch_btn_1_17_4_bool- () Bool)
(declare-fun $R_wrapper~0.R_node~0.r347_reset_btn_1_9_4_bool- () Bool)
(declare-fun $R_wrapper~0.R_node~0.r347_ignition_r_1_7_4_bool- () Bool)
(declare-fun $R_wrapper~0.R_node~0.w14_3- () Int)
(declare-fun $R_wrapper~0.R_node~0.w12_2- () Int)
(declare-fun $R_wrapper~0.R_node~0.w13_2- () Int)
(declare-fun $R_wrapper~0.R_node~0.w14_2- () Int)
(declare-fun $R_wrapper~0.R_node~0.r347_start_btn_1_3_4- () Int)
(declare-fun $R_wrapper~0.R_node~0.r347_launch_btn_1_3_4- () Int)
(declare-fun $R_wrapper~0.R_node~0.r347_launch_btn_1_5_4- () Int)
(declare-fun $R_wrapper~0.R_node~0.r347_start_btn_1_5_4- () Int)
(declare-fun $R_wrapper~0.R_node~0.r347_launch_btn_1_7_4- () Int)
(declare-fun $R_wrapper~0.R_node~0.r347_launch_btn_1_9_4- () Int)
(declare-fun $R_wrapper~0.R_node~0.r347_start_btn_1_7_4- () Int)
(declare-fun $R_wrapper~0.R_node~0.r347_launch_btn_1_11_4- () Int)
(declare-fun $R_wrapper~0.R_node~0.r347_start_btn_1_9_4- () Int)
(declare-fun $R_wrapper~0.R_node~0.r347_reset_btn_1_4_4- () Int)
(declare-fun $R_wrapper~0.R_node~0.r347_ignition_r_1_4_4- () Int)
(declare-fun $R_wrapper~0.R_node~0.r347_reset_btn_1_5_4- () Int)
(declare-fun $R_wrapper~0.R_node~0.r347_launch_btn_1_13_4- () Int)
(declare-fun $R_wrapper~0.R_node~0.r347_start_btn_1_11_4- () Int)
(declare-fun $R_wrapper~0.R_node~0.r347_ignition_r_1_5_4- () Int)
(declare-fun $R_wrapper~0.R_node~0.r347_launch_btn_1_15_4- () Int)
(declare-fun $R_wrapper~0.R_node~0.r347_reset_btn_1_7_4- () Int)
(declare-fun $R_wrapper~0.R_node~0.r347_start_btn_1_13_4- () Int)
(declare-fun $R_wrapper~0.R_node~0.r347_launch_btn_1_17_4- () Int)
(declare-fun $R_wrapper~0.R_node~0.r347_ignition_r_1_7_4- () Int)
(declare-fun $R_wrapper~0.R_node~0.r347_reset_btn_1_9_4- () Int)
(declare-fun $R_wrapper~0.R_node~0.r347_start_btn_1_15_4- () Int)
(declare-fun $R_wrapper~0.R_node~0.start_btn- () Int)
(declare-fun $R_wrapper~0.R_node~0.launch_btn- () Int)
(declare-fun $R_wrapper~0.R_node~0.reset_btn- () Int)
(declare-fun $R_wrapper~0.R_node~0.ignition- () Int)
(declare-fun %init- () Bool)
(declare-fun %assertions- () Bool)
(declare-fun |$sig-'| () Int)
(declare-fun |$T_node~0.start_bt-'| () Bool)
(declare-fun |$T_node~0.launch_bt-'| () Bool)
(declare-fun |$T_node~0.reset_flag-'| () Bool)
(declare-fun |$T_node~0.p1-'| () Bool)
(declare-fun |$R_wrapper~0.R_node~0.start_btn_bool-'| () Bool)
(declare-fun |$R_wrapper~0.R_node~0.launch_btn_bool-'| () Bool)
(declare-fun |$R_wrapper~0.R_node~0.reset_btn_bool-'| () Bool)
(declare-fun |$R_wrapper~0.R_node~0.ignition_bool-'| () Bool)
(declare-fun |$R_wrapper~0.R_node~0.r347_start_btn_1_15_4_bool-'| () Bool)
(declare-fun |$R_wrapper~0.R_node~0.r347_launch_btn_1_17_4_bool-'| () Bool)
(declare-fun |$R_wrapper~0.R_node~0.r347_reset_btn_1_9_4_bool-'| () Bool)
(declare-fun |$R_wrapper~0.R_node~0.r347_ignition_r_1_7_4_bool-'| () Bool)
(declare-fun |$R_wrapper~0.R_node~0.w14_3-'| () Int)
(declare-fun |$R_wrapper~0.R_node~0.w12_2-'| () Int)
(declare-fun |$R_wrapper~0.R_node~0.w13_2-'| () Int)
(declare-fun |$R_wrapper~0.R_node~0.w14_2-'| () Int)
(declare-fun |$R_wrapper~0.R_node~0.r347_start_btn_1_3_4-'| () Int)
(declare-fun |$R_wrapper~0.R_node~0.r347_launch_btn_1_3_4-'| () Int)
(declare-fun |$R_wrapper~0.R_node~0.r347_launch_btn_1_5_4-'| () Int)
(declare-fun |$R_wrapper~0.R_node~0.r347_start_btn_1_5_4-'| () Int)
(declare-fun |$R_wrapper~0.R_node~0.r347_launch_btn_1_7_4-'| () Int)
(declare-fun |$R_wrapper~0.R_node~0.r347_launch_btn_1_9_4-'| () Int)
(declare-fun |$R_wrapper~0.R_node~0.r347_start_btn_1_7_4-'| () Int)
(declare-fun |$R_wrapper~0.R_node~0.r347_launch_btn_1_11_4-'| () Int)
(declare-fun |$R_wrapper~0.R_node~0.r347_start_btn_1_9_4-'| () Int)
(declare-fun |$R_wrapper~0.R_node~0.r347_reset_btn_1_4_4-'| () Int)
(declare-fun |$R_wrapper~0.R_node~0.r347_ignition_r_1_4_4-'| () Int)
(declare-fun |$R_wrapper~0.R_node~0.r347_reset_btn_1_5_4-'| () Int)
(declare-fun |$R_wrapper~0.R_node~0.r347_launch_btn_1_13_4-'| () Int)
(declare-fun |$R_wrapper~0.R_node~0.r347_start_btn_1_11_4-'| () Int)
(declare-fun |$R_wrapper~0.R_node~0.r347_ignition_r_1_5_4-'| () Int)
(declare-fun |$R_wrapper~0.R_node~0.r347_launch_btn_1_15_4-'| () Int)
(declare-fun |$R_wrapper~0.R_node~0.r347_reset_btn_1_7_4-'| () Int)
(declare-fun |$R_wrapper~0.R_node~0.r347_start_btn_1_13_4-'| () Int)
(declare-fun |$R_wrapper~0.R_node~0.r347_launch_btn_1_17_4-'| () Int)
(declare-fun |$R_wrapper~0.R_node~0.r347_ignition_r_1_7_4-'| () Int)
(declare-fun |$R_wrapper~0.R_node~0.r347_reset_btn_1_9_4-'| () Int)
(declare-fun |$R_wrapper~0.R_node~0.r347_start_btn_1_15_4-'| () Int)
(declare-fun |$R_wrapper~0.R_node~0.start_btn-'| () Int)
(declare-fun |$R_wrapper~0.R_node~0.launch_btn-'| () Int)
(declare-fun |$R_wrapper~0.R_node~0.reset_btn-'| () Int)
(declare-fun |$R_wrapper~0.R_node~0.ignition-'| () Int)
(declare-fun |%init-'| () Bool)
(declare-fun |%assertions-'| () Bool)
(declare-fun |$sig'| () Int)
(declare-fun |$T_node~0.start_bt'| () Bool)
(declare-fun |$T_node~0.launch_bt'| () Bool)
(declare-fun |$T_node~0.reset_flag'| () Bool)
(declare-fun |$T_node~0.p1'| () Bool)
(declare-fun |$R_wrapper~0.R_node~0.start_btn_bool'| () Bool)
(declare-fun |$R_wrapper~0.R_node~0.launch_btn_bool'| () Bool)
(declare-fun |$R_wrapper~0.R_node~0.reset_btn_bool'| () Bool)
(declare-fun |$R_wrapper~0.R_node~0.ignition_bool'| () Bool)
(declare-fun |$R_wrapper~0.R_node~0.r347_start_btn_1_15_4_bool'| () Bool)
(declare-fun |$R_wrapper~0.R_node~0.r347_launch_btn_1_17_4_bool'| () Bool)
(declare-fun |$R_wrapper~0.R_node~0.r347_reset_btn_1_9_4_bool'| () Bool)
(declare-fun |$R_wrapper~0.R_node~0.r347_ignition_r_1_7_4_bool'| () Bool)
(declare-fun |$R_wrapper~0.R_node~0.w14_3'| () Int)
(declare-fun |$R_wrapper~0.R_node~0.w12_2'| () Int)
(declare-fun |$R_wrapper~0.R_node~0.w13_2'| () Int)
(declare-fun |$R_wrapper~0.R_node~0.w14_2'| () Int)
(declare-fun |$R_wrapper~0.R_node~0.r347_start_btn_1_3_4'| () Int)
(declare-fun |$R_wrapper~0.R_node~0.r347_launch_btn_1_3_4'| () Int)
(declare-fun |$R_wrapper~0.R_node~0.r347_launch_btn_1_5_4'| () Int)
(declare-fun |$R_wrapper~0.R_node~0.r347_start_btn_1_5_4'| () Int)
(declare-fun |$R_wrapper~0.R_node~0.r347_launch_btn_1_7_4'| () Int)
(declare-fun |$R_wrapper~0.R_node~0.r347_launch_btn_1_9_4'| () Int)
(declare-fun |$R_wrapper~0.R_node~0.r347_start_btn_1_7_4'| () Int)
(declare-fun |$R_wrapper~0.R_node~0.r347_launch_btn_1_11_4'| () Int)
(declare-fun |$R_wrapper~0.R_node~0.r347_start_btn_1_9_4'| () Int)
(declare-fun |$R_wrapper~0.R_node~0.r347_reset_btn_1_4_4'| () Int)
(declare-fun |$R_wrapper~0.R_node~0.r347_ignition_r_1_4_4'| () Int)
(declare-fun |$R_wrapper~0.R_node~0.r347_reset_btn_1_5_4'| () Int)
(declare-fun |$R_wrapper~0.R_node~0.r347_launch_btn_1_13_4'| () Int)
(declare-fun |$R_wrapper~0.R_node~0.r347_start_btn_1_11_4'| () Int)
(declare-fun |$R_wrapper~0.R_node~0.r347_ignition_r_1_5_4'| () Int)
(declare-fun |$R_wrapper~0.R_node~0.r347_launch_btn_1_15_4'| () Int)
(declare-fun |$R_wrapper~0.R_node~0.r347_reset_btn_1_7_4'| () Int)
(declare-fun |$R_wrapper~0.R_node~0.r347_start_btn_1_13_4'| () Int)
(declare-fun |$R_wrapper~0.R_node~0.r347_launch_btn_1_17_4'| () Int)
(declare-fun |$R_wrapper~0.R_node~0.r347_ignition_r_1_7_4'| () Int)
(declare-fun |$R_wrapper~0.R_node~0.r347_reset_btn_1_9_4'| () Int)
(declare-fun |$R_wrapper~0.R_node~0.r347_start_btn_1_15_4'| () Int)
(declare-fun |$R_wrapper~0.R_node~0.start_btn'| () Int)
(declare-fun |$R_wrapper~0.R_node~0.launch_btn'| () Int)
(declare-fun |$R_wrapper~0.R_node~0.reset_btn'| () Int)
(declare-fun |$R_wrapper~0.R_node~0.ignition'| () Int)
(declare-fun |%init'| () Bool)
(declare-fun |%assertions'| () Bool)
(define-fun T (($sig Int) ($T_node~0.start_bt Bool) ($T_node~0.launch_bt Bool) ($T_node~0.reset_flag Bool) ($T_node~0.p1 Bool) ($R_wrapper~0.R_node~0.start_btn_bool Bool) ($R_wrapper~0.R_node~0.launch_btn_bool Bool) ($R_wrapper~0.R_node~0.reset_btn_bool Bool) ($R_wrapper~0.R_node~0.ignition_bool Bool) ($R_wrapper~0.R_node~0.r347_start_btn_1_15_4_bool Bool) ($R_wrapper~0.R_node~0.r347_launch_btn_1_17_4_bool Bool) ($R_wrapper~0.R_node~0.r347_reset_btn_1_9_4_bool Bool) ($R_wrapper~0.R_node~0.r347_ignition_r_1_7_4_bool Bool) ($R_wrapper~0.R_node~0.w14_3 Int) ($R_wrapper~0.R_node~0.w12_2 Int) ($R_wrapper~0.R_node~0.w13_2 Int) ($R_wrapper~0.R_node~0.w14_2 Int) ($R_wrapper~0.R_node~0.r347_start_btn_1_3_4 Int) ($R_wrapper~0.R_node~0.r347_launch_btn_1_3_4 Int) ($R_wrapper~0.R_node~0.r347_launch_btn_1_5_4 Int) ($R_wrapper~0.R_node~0.r347_start_btn_1_5_4 Int) ($R_wrapper~0.R_node~0.r347_launch_btn_1_7_4 Int) ($R_wrapper~0.R_node~0.r347_launch_btn_1_9_4 Int) ($R_wrapper~0.R_node~0.r347_start_btn_1_7_4 Int) ($R_wrapper~0.R_node~0.r347_launch_btn_1_11_4 Int) ($R_wrapper~0.R_node~0.r347_start_btn_1_9_4 Int) ($R_wrapper~0.R_node~0.r347_reset_btn_1_4_4 Int) ($R_wrapper~0.R_node~0.r347_ignition_r_1_4_4 Int) ($R_wrapper~0.R_node~0.r347_reset_btn_1_5_4 Int) ($R_wrapper~0.R_node~0.r347_launch_btn_1_13_4 Int) ($R_wrapper~0.R_node~0.r347_start_btn_1_11_4 Int) ($R_wrapper~0.R_node~0.r347_ignition_r_1_5_4 Int) ($R_wrapper~0.R_node~0.r347_launch_btn_1_15_4 Int) ($R_wrapper~0.R_node~0.r347_reset_btn_1_7_4 Int) ($R_wrapper~0.R_node~0.r347_start_btn_1_13_4 Int) ($R_wrapper~0.R_node~0.r347_launch_btn_1_17_4 Int) ($R_wrapper~0.R_node~0.r347_ignition_r_1_7_4 Int) ($R_wrapper~0.R_node~0.r347_reset_btn_1_9_4 Int) ($R_wrapper~0.R_node~0.r347_start_btn_1_15_4 Int) ($R_wrapper~0.R_node~0.start_btn Int) ($R_wrapper~0.R_node~0.launch_btn Int) ($R_wrapper~0.R_node~0.reset_btn Int) ($R_wrapper~0.R_node~0.ignition Int) (%init Bool) (%assertions Bool) (|$sig'| Int) (|$T_node~0.start_bt'| Bool) (|$T_node~0.launch_bt'| Bool) (|$T_node~0.reset_flag'| Bool) (|$T_node~0.p1'| Bool) (|$R_wrapper~0.R_node~0.start_btn_bool'| Bool) (|$R_wrapper~0.R_node~0.launch_btn_bool'| Bool) (|$R_wrapper~0.R_node~0.reset_btn_bool'| Bool) (|$R_wrapper~0.R_node~0.ignition_bool'| Bool) (|$R_wrapper~0.R_node~0.r347_start_btn_1_15_4_bool'| Bool) (|$R_wrapper~0.R_node~0.r347_launch_btn_1_17_4_bool'| Bool) (|$R_wrapper~0.R_node~0.r347_reset_btn_1_9_4_bool'| Bool) (|$R_wrapper~0.R_node~0.r347_ignition_r_1_7_4_bool'| Bool) (|$R_wrapper~0.R_node~0.w14_3'| Int) (|$R_wrapper~0.R_node~0.w12_2'| Int) (|$R_wrapper~0.R_node~0.w13_2'| Int) (|$R_wrapper~0.R_node~0.w14_2'| Int) (|$R_wrapper~0.R_node~0.r347_start_btn_1_3_4'| Int) (|$R_wrapper~0.R_node~0.r347_launch_btn_1_3_4'| Int) (|$R_wrapper~0.R_node~0.r347_launch_btn_1_5_4'| Int) (|$R_wrapper~0.R_node~0.r347_start_btn_1_5_4'| Int) (|$R_wrapper~0.R_node~0.r347_launch_btn_1_7_4'| Int) (|$R_wrapper~0.R_node~0.r347_launch_btn_1_9_4'| Int) (|$R_wrapper~0.R_node~0.r347_start_btn_1_7_4'| Int) (|$R_wrapper~0.R_node~0.r347_launch_btn_1_11_4'| Int) (|$R_wrapper~0.R_node~0.r347_start_btn_1_9_4'| Int) (|$R_wrapper~0.R_node~0.r347_reset_btn_1_4_4'| Int) (|$R_wrapper~0.R_node~0.r347_ignition_r_1_4_4'| Int) (|$R_wrapper~0.R_node~0.r347_reset_btn_1_5_4'| Int) (|$R_wrapper~0.R_node~0.r347_launch_btn_1_13_4'| Int) (|$R_wrapper~0.R_node~0.r347_start_btn_1_11_4'| Int) (|$R_wrapper~0.R_node~0.r347_ignition_r_1_5_4'| Int) (|$R_wrapper~0.R_node~0.r347_launch_btn_1_15_4'| Int) (|$R_wrapper~0.R_node~0.r347_reset_btn_1_7_4'| Int) (|$R_wrapper~0.R_node~0.r347_start_btn_1_13_4'| Int) (|$R_wrapper~0.R_node~0.r347_launch_btn_1_17_4'| Int) (|$R_wrapper~0.R_node~0.r347_ignition_r_1_7_4'| Int) (|$R_wrapper~0.R_node~0.r347_reset_btn_1_9_4'| Int) (|$R_wrapper~0.R_node~0.r347_start_btn_1_15_4'| Int) (|$R_wrapper~0.R_node~0.start_btn'| Int) (|$R_wrapper~0.R_node~0.launch_btn'| Int) (|$R_wrapper~0.R_node~0.reset_btn'| Int) (|$R_wrapper~0.R_node~0.ignition'| Int) (|%init'| Bool) (|%assertions'| Bool)) Bool (and (= |$T_node~0.start_bt'| (and (not %init) (not $T_node~0.reset_flag) (not (and (and (not $T_node~0.start_bt) (not $T_node~0.launch_bt)) (= |$sig'| 0))) $T_node~0.start_bt)) (= |$T_node~0.launch_bt'| (and (not %init) (not $T_node~0.reset_flag) (or (and (and $T_node~0.start_bt (not $T_node~0.launch_bt)) (= |$sig'| 1)) $T_node~0.launch_bt))) (= |$T_node~0.reset_flag'| (and (not %init) $R_wrapper~0.R_node~0.r347_ignition_r_1_7_4_bool)) (= |$T_node~0.p1'| (= |$R_wrapper~0.R_node~0.r347_ignition_r_1_7_4_bool'| (and (not %init) (and $T_node~0.launch_bt (not |$T_node~0.reset_flag'|)) (not $T_node~0.reset_flag)))) (= |$R_wrapper~0.R_node~0.start_btn_bool'| (and (not %init) $R_wrapper~0.R_node~0.r347_start_btn_1_15_4_bool)) (= |$R_wrapper~0.R_node~0.launch_btn_bool'| (and (not %init) $R_wrapper~0.R_node~0.r347_launch_btn_1_17_4_bool)) (= |$R_wrapper~0.R_node~0.reset_btn_bool'| (and (not %init) $R_wrapper~0.R_node~0.r347_reset_btn_1_9_4_bool)) (= |$R_wrapper~0.R_node~0.ignition_bool'| (and (not %init) $R_wrapper~0.R_node~0.r347_ignition_r_1_7_4_bool)) (= |$R_wrapper~0.R_node~0.w14_3'| (ite (or (or (or (not (= |$R_wrapper~0.R_node~0.start_btn'| 0)) (and (= |$R_wrapper~0.R_node~0.start_btn'| 0) (not (= |$R_wrapper~0.R_node~0.launch_btn'| 0)))) (and (and (= |$R_wrapper~0.R_node~0.start_btn'| 0) (= |$R_wrapper~0.R_node~0.launch_btn'| 0)) (not (= |$R_wrapper~0.R_node~0.ignition'| 0)))) (and (and (and (= |$R_wrapper~0.R_node~0.start_btn'| 0) (= |$R_wrapper~0.R_node~0.launch_btn'| 0)) (= |$R_wrapper~0.R_node~0.ignition'| 0)) (not (= |$R_wrapper~0.R_node~0.reset_btn'| 0)))) (ite (or (or (or (= |$R_wrapper~0.R_node~0.start_btn'| 0) (and (not (= |$R_wrapper~0.R_node~0.start_btn'| 0)) (not (= |$R_wrapper~0.R_node~0.launch_btn'| 0)))) (and (and (not (= |$R_wrapper~0.R_node~0.start_btn'| 0)) (= |$R_wrapper~0.R_node~0.launch_btn'| 0)) (not (= |$R_wrapper~0.R_node~0.ignition'| 0)))) (and (and (and (not (= |$R_wrapper~0.R_node~0.start_btn'| 0)) (= |$R_wrapper~0.R_node~0.launch_btn'| 0)) (= |$R_wrapper~0.R_node~0.ignition'| 0)) (not (= |$R_wrapper~0.R_node~0.reset_btn'| 0)))) (ite (and (and (and (not (= |$R_wrapper~0.R_node~0.start_btn'| 0)) (not (= |$R_wrapper~0.R_node~0.launch_btn'| 0))) (= |$R_wrapper~0.R_node~0.ignition'| 0)) (= |$R_wrapper~0.R_node~0.reset_btn'| 0)) 3 (ite (or (or (or (= |$R_wrapper~0.R_node~0.start_btn'| 0) (and (not (= |$R_wrapper~0.R_node~0.start_btn'| 0)) (= |$R_wrapper~0.R_node~0.launch_btn'| 0))) (and (and (not (= |$R_wrapper~0.R_node~0.start_btn'| 0)) (not (= |$R_wrapper~0.R_node~0.launch_btn'| 0))) (= |$R_wrapper~0.R_node~0.ignition'| 0))) (and (and (and (not (= |$R_wrapper~0.R_node~0.start_btn'| 0)) (not (= |$R_wrapper~0.R_node~0.launch_btn'| 0))) (not (= |$R_wrapper~0.R_node~0.ignition'| 0))) (not (= |$R_wrapper~0.R_node~0.reset_btn'| 0)))) (ite (or (or (or (= |$R_wrapper~0.R_node~0.start_btn'| 0) (and (not (= |$R_wrapper~0.R_node~0.start_btn'| 0)) (= |$R_wrapper~0.R_node~0.launch_btn'| 0))) (and (and (not (= |$R_wrapper~0.R_node~0.start_btn'| 0)) (not (= |$R_wrapper~0.R_node~0.launch_btn'| 0))) (not (= |$R_wrapper~0.R_node~0.ignition'| 0)))) (and (and (and (not (= |$R_wrapper~0.R_node~0.start_btn'| 0)) (not (= |$R_wrapper~0.R_node~0.launch_btn'| 0))) (= |$R_wrapper~0.R_node~0.ignition'| 0)) (= |$R_wrapper~0.R_node~0.reset_btn'| 0))) 7 5) 4)) 2) 1)) (= |$R_wrapper~0.R_node~0.w12_2'| (ite (not (= |$sig'| 0)) 0 1)) (= |$R_wrapper~0.R_node~0.w13_2'| (ite (not (= |$sig'| 1)) 0 1)) (= |$R_wrapper~0.R_node~0.w14_2'| (ite (or (not (= |$R_wrapper~0.R_node~0.w12_2'| 0)) (and (= |$R_wrapper~0.R_node~0.w12_2'| 0) (not (= |$R_wrapper~0.R_node~0.w13_2'| 0)))) 1 0)) (= |$R_wrapper~0.R_node~0.r347_start_btn_1_3_4'| (ite (not (= |$R_wrapper~0.R_node~0.w12_2'| 0)) 1 |$R_wrapper~0.R_node~0.start_btn'|)) (= |$R_wrapper~0.R_node~0.r347_launch_btn_1_3_4'| (ite (not (= |$R_wrapper~0.R_node~0.w13_2'| 0)) 1 |$R_wrapper~0.R_node~0.launch_btn'|)) (= |$R_wrapper~0.R_node~0.r347_launch_btn_1_5_4'| (ite (= |$R_wrapper~0.R_node~0.w14_3'| 2) |$R_wrapper~0.R_node~0.r347_launch_btn_1_3_4'| |$R_wrapper~0.R_node~0.launch_btn'|)) (= |$R_wrapper~0.R_node~0.r347_start_btn_1_5_4'| (ite (= |$R_wrapper~0.R_node~0.w14_3'| 1) |$R_wrapper~0.R_node~0.r347_start_btn_1_3_4'| |$R_wrapper~0.R_node~0.start_btn'|)) (= |$R_wrapper~0.R_node~0.r347_launch_btn_1_7_4'| (ite (= |$R_wrapper~0.R_node~0.w14_3'| 1) |$R_wrapper~0.R_node~0.launch_btn'| |$R_wrapper~0.R_node~0.r347_launch_btn_1_5_4'|)) (= |$R_wrapper~0.R_node~0.r347_launch_btn_1_9_4'| (ite (not (= |$R_wrapper~0.R_node~0.w14_2'| 0)) |$R_wrapper~0.R_node~0.r347_launch_btn_1_7_4'| |$R_wrapper~0.R_node~0.launch_btn'|)) (= |$R_wrapper~0.R_node~0.r347_start_btn_1_7_4'| (ite (not (= |$R_wrapper~0.R_node~0.w14_2'| 0)) |$R_wrapper~0.R_node~0.r347_start_btn_1_5_4'| |$R_wrapper~0.R_node~0.start_btn'|)) (= |$R_wrapper~0.R_node~0.r347_launch_btn_1_11_4'| (ite (and (not (= |$R_wrapper~0.R_node~0.w14_3'| 5)) (not (= |$R_wrapper~0.R_node~0.w14_3'| 7))) |$R_wrapper~0.R_node~0.r347_launch_btn_1_9_4'| 0)) (= |$R_wrapper~0.R_node~0.r347_start_btn_1_9_4'| (ite (and (not (= |$R_wrapper~0.R_node~0.w14_3'| 5)) (not (= |$R_wrapper~0.R_node~0.w14_3'| 7))) |$R_wrapper~0.R_node~0.r347_start_btn_1_7_4'| 0)) (= |$R_wrapper~0.R_node~0.r347_reset_btn_1_4_4'| (ite (and (not (= |$R_wrapper~0.R_node~0.w14_3'| 5)) (not (= |$R_wrapper~0.R_node~0.w14_3'| 7))) |$R_wrapper~0.R_node~0.reset_btn'| 0)) (= |$R_wrapper~0.R_node~0.r347_ignition_r_1_4_4'| (ite (= |$R_wrapper~0.R_node~0.w14_3'| 4) 0 |$R_wrapper~0.R_node~0.ignition'|)) (= |$R_wrapper~0.R_node~0.r347_reset_btn_1_5_4'| (ite (= |$R_wrapper~0.R_node~0.w14_3'| 4) 1 |$R_wrapper~0.R_node~0.r347_reset_btn_1_4_4'|)) (= |$R_wrapper~0.R_node~0.r347_launch_btn_1_13_4'| (ite (= |$R_wrapper~0.R_node~0.w14_3'| 4) |$R_wrapper~0.R_node~0.launch_btn'| |$R_wrapper~0.R_node~0.r347_launch_btn_1_11_4'|)) (= |$R_wrapper~0.R_node~0.r347_start_btn_1_11_4'| (ite (= |$R_wrapper~0.R_node~0.w14_3'| 4) |$R_wrapper~0.R_node~0.start_btn'| |$R_wrapper~0.R_node~0.r347_start_btn_1_9_4'|)) (= |$R_wrapper~0.R_node~0.r347_ignition_r_1_5_4'| (ite (= |$R_wrapper~0.R_node~0.w14_3'| 3) 1 |$R_wrapper~0.R_node~0.r347_ignition_r_1_4_4'|)) (= |$R_wrapper~0.R_node~0.r347_launch_btn_1_15_4'| (ite (= |$R_wrapper~0.R_node~0.w14_3'| 3) |$R_wrapper~0.R_node~0.launch_btn'| |$R_wrapper~0.R_node~0.r347_launch_btn_1_13_4'|)) (= |$R_wrapper~0.R_node~0.r347_reset_btn_1_7_4'| (ite (= |$R_wrapper~0.R_node~0.w14_3'| 3) |$R_wrapper~0.R_node~0.reset_btn'| |$R_wrapper~0.R_node~0.r347_reset_btn_1_5_4'|)) (= |$R_wrapper~0.R_node~0.r347_start_btn_1_13_4'| (ite (= |$R_wrapper~0.R_node~0.w14_3'| 3) |$R_wrapper~0.R_node~0.start_btn'| |$R_wrapper~0.R_node~0.r347_start_btn_1_11_4'|)) (= |$R_wrapper~0.R_node~0.r347_launch_btn_1_17_4'| (ite (not (= 1 0)) |$R_wrapper~0.R_node~0.r347_launch_btn_1_15_4'| |$R_wrapper~0.R_node~0.launch_btn'|)) (= |$R_wrapper~0.R_node~0.r347_ignition_r_1_7_4'| (ite (not (= 1 0)) |$R_wrapper~0.R_node~0.r347_ignition_r_1_5_4'| |$R_wrapper~0.R_node~0.ignition'|)) (= |$R_wrapper~0.R_node~0.r347_reset_btn_1_9_4'| (ite (not (= 1 0)) |$R_wrapper~0.R_node~0.r347_reset_btn_1_7_4'| |$R_wrapper~0.R_node~0.reset_btn'|)) (= |$R_wrapper~0.R_node~0.r347_start_btn_1_15_4'| (ite (not (= 1 0)) |$R_wrapper~0.R_node~0.r347_start_btn_1_13_4'| |$R_wrapper~0.R_node~0.start_btn'|)) (= |$R_wrapper~0.R_node~0.start_btn'| (ite |$R_wrapper~0.R_node~0.start_btn_bool'| 1 0)) (= |$R_wrapper~0.R_node~0.launch_btn'| (ite |$R_wrapper~0.R_node~0.launch_btn_bool'| 1 0)) (= |$R_wrapper~0.R_node~0.reset_btn'| (ite |$R_wrapper~0.R_node~0.reset_btn_bool'| 1 0)) (= |$R_wrapper~0.R_node~0.ignition'| (ite |$R_wrapper~0.R_node~0.ignition_bool'| 1 0)) (= |$R_wrapper~0.R_node~0.r347_start_btn_1_15_4_bool'| (and (not %init) (= |$R_wrapper~0.R_node~0.r347_start_btn_1_15_4'| 1))) (= |$R_wrapper~0.R_node~0.r347_launch_btn_1_17_4_bool'| (and (not %init) (= |$R_wrapper~0.R_node~0.r347_launch_btn_1_17_4'| 1))) (= |$R_wrapper~0.R_node~0.r347_reset_btn_1_9_4_bool'| (and (not %init) (= |$R_wrapper~0.R_node~0.r347_reset_btn_1_9_4'| 1))) (= |$R_wrapper~0.R_node~0.r347_ignition_r_1_7_4_bool'| (and (not %init) (= |$R_wrapper~0.R_node~0.r347_ignition_r_1_7_4'| 1))) (= |%assertions'| (or %init %assertions)) (not |%init'|)))
(assert (! (T $sig- $T_node~0.start_bt- $T_node~0.launch_bt- $T_node~0.reset_flag- $T_node~0.p1- $R_wrapper~0.R_node~0.start_btn_bool- $R_wrapper~0.R_node~0.launch_btn_bool- $R_wrapper~0.R_node~0.reset_btn_bool- $R_wrapper~0.R_node~0.ignition_bool- $R_wrapper~0.R_node~0.r347_start_btn_1_15_4_bool- $R_wrapper~0.R_node~0.r347_launch_btn_1_17_4_bool- $R_wrapper~0.R_node~0.r347_reset_btn_1_9_4_bool- $R_wrapper~0.R_node~0.r347_ignition_r_1_7_4_bool- $R_wrapper~0.R_node~0.w14_3- $R_wrapper~0.R_node~0.w12_2- $R_wrapper~0.R_node~0.w13_2- $R_wrapper~0.R_node~0.w14_2- $R_wrapper~0.R_node~0.r347_start_btn_1_3_4- $R_wrapper~0.R_node~0.r347_launch_btn_1_3_4- $R_wrapper~0.R_node~0.r347_launch_btn_1_5_4- $R_wrapper~0.R_node~0.r347_start_btn_1_5_4- $R_wrapper~0.R_node~0.r347_launch_btn_1_7_4- $R_wrapper~0.R_node~0.r347_launch_btn_1_9_4- $R_wrapper~0.R_node~0.r347_start_btn_1_7_4- $R_wrapper~0.R_node~0.r347_launch_btn_1_11_4- $R_wrapper~0.R_node~0.r347_start_btn_1_9_4- $R_wrapper~0.R_node~0.r347_reset_btn_1_4_4- $R_wrapper~0.R_node~0.r347_ignition_r_1_4_4- $R_wrapper~0.R_node~0.r347_reset_btn_1_5_4- $R_wrapper~0.R_node~0.r347_launch_btn_1_13_4- $R_wrapper~0.R_node~0.r347_start_btn_1_11_4- $R_wrapper~0.R_node~0.r347_ignition_r_1_5_4- $R_wrapper~0.R_node~0.r347_launch_btn_1_15_4- $R_wrapper~0.R_node~0.r347_reset_btn_1_7_4- $R_wrapper~0.R_node~0.r347_start_btn_1_13_4- $R_wrapper~0.R_node~0.r347_launch_btn_1_17_4- $R_wrapper~0.R_node~0.r347_ignition_r_1_7_4- $R_wrapper~0.R_node~0.r347_reset_btn_1_9_4- $R_wrapper~0.R_node~0.r347_start_btn_1_15_4- $R_wrapper~0.R_node~0.start_btn- $R_wrapper~0.R_node~0.launch_btn- $R_wrapper~0.R_node~0.reset_btn- $R_wrapper~0.R_node~0.ignition- %init- %assertions- |$sig-'| |$T_node~0.start_bt-'| |$T_node~0.launch_bt-'| |$T_node~0.reset_flag-'| |$T_node~0.p1-'| |$R_wrapper~0.R_node~0.start_btn_bool-'| |$R_wrapper~0.R_node~0.launch_btn_bool-'| |$R_wrapper~0.R_node~0.reset_btn_bool-'| |$R_wrapper~0.R_node~0.ignition_bool-'| |$R_wrapper~0.R_node~0.r347_start_btn_1_15_4_bool-'| |$R_wrapper~0.R_node~0.r347_launch_btn_1_17_4_bool-'| |$R_wrapper~0.R_node~0.r347_reset_btn_1_9_4_bool-'| |$R_wrapper~0.R_node~0.r347_ignition_r_1_7_4_bool-'| |$R_wrapper~0.R_node~0.w14_3-'| |$R_wrapper~0.R_node~0.w12_2-'| |$R_wrapper~0.R_node~0.w13_2-'| |$R_wrapper~0.R_node~0.w14_2-'| |$R_wrapper~0.R_node~0.r347_start_btn_1_3_4-'| |$R_wrapper~0.R_node~0.r347_launch_btn_1_3_4-'| |$R_wrapper~0.R_node~0.r347_launch_btn_1_5_4-'| |$R_wrapper~0.R_node~0.r347_start_btn_1_5_4-'| |$R_wrapper~0.R_node~0.r347_launch_btn_1_7_4-'| |$R_wrapper~0.R_node~0.r347_launch_btn_1_9_4-'| |$R_wrapper~0.R_node~0.r347_start_btn_1_7_4-'| |$R_wrapper~0.R_node~0.r347_launch_btn_1_11_4-'| |$R_wrapper~0.R_node~0.r347_start_btn_1_9_4-'| |$R_wrapper~0.R_node~0.r347_reset_btn_1_4_4-'| |$R_wrapper~0.R_node~0.r347_ignition_r_1_4_4-'| |$R_wrapper~0.R_node~0.r347_reset_btn_1_5_4-'| |$R_wrapper~0.R_node~0.r347_launch_btn_1_13_4-'| |$R_wrapper~0.R_node~0.r347_start_btn_1_11_4-'| |$R_wrapper~0.R_node~0.r347_ignition_r_1_5_4-'| |$R_wrapper~0.R_node~0.r347_launch_btn_1_15_4-'| |$R_wrapper~0.R_node~0.r347_reset_btn_1_7_4-'| |$R_wrapper~0.R_node~0.r347_start_btn_1_13_4-'| |$R_wrapper~0.R_node~0.r347_launch_btn_1_17_4-'| |$R_wrapper~0.R_node~0.r347_ignition_r_1_7_4-'| |$R_wrapper~0.R_node~0.r347_reset_btn_1_9_4-'| |$R_wrapper~0.R_node~0.r347_start_btn_1_15_4-'| |$R_wrapper~0.R_node~0.start_btn-'| |$R_wrapper~0.R_node~0.launch_btn-'| |$R_wrapper~0.R_node~0.reset_btn-'| |$R_wrapper~0.R_node~0.ignition-'| |%init-'| |%assertions-'|) :named abstract0))
